
Log started (V11.0.0) Tue May 13 17:38:33 2008

Tried aggregator 1 time.
Reduced MIP has 110 rows, 1001 columns, and 2010 nonzeros.
Presolve time =   -0.00 sec.
Clique table members: 100.
MIP emphasis: balance optimality and feasibility.
MIP search method: dynamic search.
Parallel mode: none, using 1 thread.
Root relaxation solution time =    0.01 sec.

        Nodes                                         Cuts/
   Node  Left     Objective  IInf  Best Integer     Best Node    ItCnt     Gap

*     0+    0                         1768.0000      157.6006      160   91.09%
*     0+    0                          197.0000      157.6006      160   20.00%
      0     0      159.1166    21      197.0000      Fract: 8      184   19.23%
*     0+    0                          196.0000      159.1166      184   18.82%
      0     0      161.7729    22      196.0000    MIRcuts: 5      216   17.46%
*     0+    0                          182.0000      161.7729      216   11.11%
      0     0      161.7766    26      182.0000    MIRcuts: 2      221   11.11%
*     0+    0                          176.0000      161.7766      221    8.08%
      0     0      161.9906    27      176.0000       Cuts: 4      231    7.96%
*     0+    0                          174.0000      161.9906      231    6.90%
      0     0      161.9985    32      174.0000       Cuts: 2      236    6.90%
*     0+    0                          173.0000      161.9985      236    6.36%
*     0+    0                          170.0000      161.9985      236    4.71%
*     0+    0                          168.0000      161.9985      236    3.57%
      0     2      162.0000    31      168.0000      161.9985      236    3.57%
*    10+    8                          166.0000      163.0000      340    1.81%
    100    67      165.0000     9      166.0000      163.0000     2280    1.81%
    200   108      163.0000    15      166.0000      163.0000     2981    1.81%
    300   177      164.0000    12      166.0000      163.0000     3935    1.81%
    400   261      164.0000    10      166.0000      163.0000     4884    1.81%
*   491+  196                          165.0000      164.0000     6739    0.61%
    500   198      164.0000    14      165.0000      164.0000     6548    0.61%
*   591+    0                          164.0000      164.0000    11455    0.00%

Cover cuts applied:  69
Mixed integer rounding cuts applied:  12
Zero-half cuts applied:  1
Gomory fractional cuts applied:  6

Solution pool: 12 solutions saved.

MIP - Integer optimal solution:  Objective = 1.6400000000e+002
Solution time =    2.30 sec.  Iterations = 11455  Nodes = 591


Incumbent solution
Variable Name           Solution Value
Cmax                        164.000000
X_1_9                         1.000000
X_2_9                         1.000000
X_3_9                         1.000000
X_4_7                         1.000000
X_5_1                         1.000000
X_6_6                         1.000000
X_7_2                         1.000000
X_8_9                         1.000000
X_9_2                         1.000000
X_10_6                        1.000000
X_11_9                        1.000000
X_12_10                       1.000000
X_13_6                        1.000000
X_14_1                        1.000000
X_15_1                        1.000000
X_16_3                        1.000000
X_17_6                        1.000000
X_18_7                        1.000000
X_19_6                        1.000000
X_20_9                        1.000000
X_21_9                        1.000000
X_22_10                       1.000000
X_23_9                        1.000000
X_24_3                        1.000000
X_25_2                        1.000000
X_26_9                        1.000000
X_27_2                        1.000000
X_28_9                        1.000000
X_29_6                        1.000000
X_30_9                        1.000000
X_31_6                        1.000000
X_32_7                        1.000000
X_33_6                        1.000000
X_34_10                       1.000000
X_35_10                       1.000000
X_36_8                        1.000000
X_37_10                       1.000000
X_38_6                        1.000000
X_39_5                        1.000000
X_40_9                        1.000000
X_41_7                        1.000000
X_42_10                       1.000000
X_43_1                        1.000000
X_44_3                        1.000000
X_45_10                       1.000000
X_46_9                        1.000000
X_47_2                        1.000000
X_48_7                        1.000000
X_49_6                        1.000000
X_50_7                        1.000000
X_51_6                        1.000000
X_52_10                       1.000000
X_53_7                        1.000000
X_54_2                        1.000000
X_55_3                        1.000000
X_56_6                        1.000000
X_57_1                        1.000000
X_58_7                        1.000000
X_59_7                        1.000000
X_60_10                       1.000000
X_61_10                       1.000000
X_62_10                       1.000000
X_63_6                        1.000000
X_64_6                        1.000000
X_65_9                        1.000000
X_66_9                        1.000000
X_67_9                        1.000000
X_68_1                        1.000000
X_69_9                        1.000000
X_70_6                        1.000000
X_71_9                        1.000000
X_72_7                        1.000000
X_73_6                        1.000000
X_74_9                        1.000000
X_75_6                        1.000000
X_76_1                        1.000000
X_77_6                        1.000000
X_78_7                        1.000000
X_79_3                        1.000000
X_80_9                        1.000000
X_81_10                       1.000000
X_82_1                        1.000000
X_83_7                        1.000000
X_84_10                       1.000000
X_85_1                        1.000000
X_86_9                        1.000000
X_87_6                        1.000000
X_88_10                       1.000000
X_89_9                        1.000000
X_90_10                       1.000000
X_91_9                        1.000000
X_92_9                        1.000000
X_93_9                        1.000000
X_94_6                        1.000000
X_95_7                        1.000000
X_96_10                       1.000000
X_97_1                        1.000000
X_98_4                        1.000000
X_99_3                        1.000000
X_100_9                       1.000000
All other variables in the range 1-1001 are 0.
